p tw 125 132
1 2
2 38
3 14
4 5
5 6
6 7
7 8
8 9
9 10
10 11
11 12
12 13
13 15
14 25
15 16
16 17
17 18
18 19
19 20
20 21
21 22
22 23
23 24
24 84
25 31
26 27
27 28
28 29
29 30
31 32
32 33
33 34
34 35
35 36
36 37
37 39
38 49
39 40
40 41
41 42
42 43
42 47
43 44
44 45
45 46
46 47
46 62
47 48
48 50
49 60
50 51
51 52
52 53
53 54
54 55
55 56
56 57
57 58
58 59
59 61
60 71
61 29
62 63
63 64
64 65
65 66
66 67
67 68
68 69
69 70
70 72
71 82
72 73
73 74
74 75
75 76
76 77
77 78
78 79
79 80
80 81
81 83
82 93
82 3
83 84
84 85
85 86
86 87
87 88
88 89
88 92
89 90
90 91
91 92
91 95
92 94
93 104
94 29
95 96
96 97
97 98
98 99
99 100
100 101
101 102
102 103
103 105
103 107
104 115
104 87
105 106
106 29
107 108
108 109
109 110
109 84
110 111
111 112
112 113
113 114
114 116
115 26
116 117
117 118
118 119
119 120
120 121
121 122
122 123
123 124
124 125
125 4
